words_hard_train/9598.qaiger
aag 88 16 0 1 72
2
4
8
10
30
38
56
64
82
90
106
110
118
122
124
146
177
6 2 5
12 9 10
14 7 13
16 8 11
18 3 4
20 17 19
22 14 20
24 21 13
26 5 9
28 25 27
32 27 30
34 26 31
36 33 35
40 37 39
42 36 38
44 41 43
46 29 45
48 28 44
50 47 49
52 22 51
54 49 43
58 35 56
60 34 57
62 59 61
66 63 65
68 62 64
70 67 69
72 54 71
74 55 70
76 73 75
78 52 77
80 75 69
84 61 82
86 60 83
88 85 87
92 89 91
94 88 90
96 93 95
98 80 97
100 81 96
102 99 101
104 78 103
108 86 107
112 109 110
114 108 111
116 113 115
120 117 119
126 122 124
128 123 125
130 127 129
132 130 114
134 131 115
136 133 135
138 121 136
140 104 139
142 87 106
144 143 109
148 145 147
150 101 95
152 148 150
154 116 118
156 137 155
158 153 157
160 140 159
162 144 146
164 150 163
166 165 149
168 166 121
170 169 156
172 160 171
174 151 162
176 172 175
i0 2 y2[0]
i1 1 x1[0]
i2 1 x1[1]
i3 2 y2[1]
i4 1 x1[2]
i5 2 y2[2]
i6 1 x1[3]
i7 2 y2[3]
i8 1 x1[4]
i9 2 y2[4]
i10 1 x1[5]
i11 1 x1[6]
i12 2 y2[6]
i13 1 x1[7]
i14 2 y2[7]
i15 2 y2[5]
o0 bool[0]
c
simplified
  !=
    xor
      2 y2
      add
        2 y2
        unary minus
          1 x1
    2 y2
