words_hard_train/9598.qaiger.qdimacs
p cnf 88 217
a 2 4 41 15 53 55 28 61 0
e 1 3 5 6 7 8 9 10 11 12 13 14 16 17 18 19 20 21 22 23 24 25 26 27 29 30 31 32 33 34 35 36 37 38 39 40 42 43 44 45 46 47 48 49 50 51 52 54 56 57 58 59 60 62 63 64 65 66 67 68 69 70 71 72 73 74 75 76 77 78 79 80 81 82 83 84 85 86 87 88 0
-1 2 3 0
1 -3 0
-2 -3 0
4 -5 6 0
-4 -6 0
5 -6 0
3 6 7 0
-3 -7 0
-6 -7 0
-4 5 8 0
4 -8 0
-5 -8 0
1 -2 9 0
-1 -9 0
2 -9 0
8 9 10 0
-8 -10 0
-9 -10 0
-7 -10 11 0
7 -11 0
10 -11 0
10 6 12 0
-10 -12 0
-6 -12 0
2 4 13 0
-2 -13 0
-4 -13 0
12 13 14 0
-12 -14 0
-13 -14 0
13 -15 16 0
-13 -16 0
15 -16 0
-13 15 17 0
13 -17 0
-15 -17 0
16 17 18 0
-16 -18 0
-17 -18 0
18 19 20 0
-18 -20 0
-19 -20 0
-18 -19 21 0
18 -21 0
19 -21 0
20 21 22 0
-20 -22 0
-21 -22 0
14 22 23 0
-14 -23 0
-22 -23 0
-14 -22 24 0
14 -24 0
22 -24 0
23 24 25 0
-23 -25 0
-24 -25 0
-11 25 26 0
11 -26 0
-25 -26 0
24 21 27 0
-24 -27 0
-21 -27 0
17 -28 29 0
-17 -29 0
28 -29 0
-17 28 30 0
17 -30 0
-28 -30 0
29 30 31 0
-29 -31 0
-30 -31 0
31 32 33 0
-31 -33 0
-32 -33 0
-31 -32 34 0
31 -34 0
32 -34 0
33 34 35 0
-33 -35 0
-34 -35 0
-27 35 36 0
27 -36 0
-35 -36 0
27 -35 37 0
-27 -37 0
35 -37 0
36 37 38 0
-36 -38 0
-37 -38 0
-26 38 39 0
26 -39 0
-38 -39 0
37 34 40 0
-37 -40 0
-34 -40 0
30 -41 42 0
-30 -42 0
41 -42 0
-30 41 43 0
30 -43 0
-41 -43 0
42 43 44 0
-42 -44 0
-43 -44 0
44 45 46 0
-44 -46 0
-45 -46 0
-44 -45 47 0
44 -47 0
45 -47 0
46 47 48 0
-46 -48 0
-47 -48 0
-40 48 49 0
40 -49 0
-48 -49 0
40 -48 50 0
-40 -50 0
48 -50 0
49 50 51 0
-49 -51 0
-50 -51 0
-39 51 52 0
39 -52 0
-51 -52 0
-43 53 54 0
43 -54 0
-53 -54 0
54 -55 56 0
-54 -56 0
55 -56 0
-54 55 57 0
54 -57 0
-55 -57 0
56 57 58 0
-56 -58 0
-57 -58 0
58 59 60 0
-58 -60 0
-59 -60 0
-61 -62 63 0
61 -63 0
62 -63 0
61 62 64 0
-61 -64 0
-62 -64 0
63 64 65 0
-63 -65 0
-64 -65 0
-65 -57 66 0
65 -66 0
57 -66 0
65 57 67 0
-65 -67 0
-57 -67 0
66 67 68 0
-66 -68 0
-67 -68 0
60 -68 69 0
-60 -69 0
68 -69 0
-52 69 70 0
52 -70 0
-69 -70 0
43 -53 71 0
-43 -71 0
53 -71 0
71 54 72 0
-71 -72 0
-54 -72 0
72 73 74 0
-72 -74 0
-73 -74 0
50 47 75 0
-50 -75 0
-47 -75 0
-74 -75 76 0
74 -76 0
75 -76 0
-58 -59 77 0
58 -77 0
59 -77 0
68 77 78 0
-68 -78 0
-77 -78 0
76 78 79 0
-76 -79 0
-78 -79 0
-70 79 80 0
70 -80 0
-79 -80 0
-72 -73 81 0
72 -81 0
73 -81 0
-75 81 82 0
75 -82 0
-81 -82 0
82 74 83 0
-82 -83 0
-74 -83 0
-83 60 84 0
83 -84 0
-60 -84 0
84 -78 85 0
-84 -85 0
78 -85 0
-80 85 86 0
80 -86 0
-85 -86 0
75 -81 87 0
-75 -87 0
81 -87 0
-86 87 88 0
86 -88 0
-87 -88 0
-88 0
